NAME : LRC1_6_5
TYPE : PDPTW
DIMENSION : 150
EDGE_WEIGHT_TYPE : EXACT_2D
NODE_COORD_SECTION
1 1 0
2 150 0
3 0 0
4 -9 848
5 0 2
6 57 139
7 3 199
8 530 10
9 61 84
10 10 0
11 103 -30
12 438 0
13 10 51
14 624 7
15 632 689
16 8 230
17 415 10
18 55 68
19 10 560
20 180 27
21 0 500
22 -20 277
23 0 12
24 203 234
25 13 257
26 203 10
27 57 155
28 10 0
29 26 -18
30 272 0
31 10 123
32 148 17
33 205 279
34 18 89
35 300 10
36 84 231
37 0 0
38 240 17
39 0 537
40 -20 196
41 0 22
42 126 181
43 23 180
44 164 10
45 240 73
46 10 0
47 265 20
48 0 582
49 20 95
50 178 27
51 178 201
52 28 160
53 155 10
54 289 130
55 10 0
56 255 -10
57 74 0
58 -15 329
59 0 32
60 539 654
61 33 115
62 104 10
63 250 228
64 10 355
65 89 -27
66 533 0
67 20 82
68 343 37
69 33 147
70 38 159
71 224 10
72 47 277
73 10 0
74 269 17
75 0 477
76 30 189
77 172 42
78 136 250
79 43 74
80 867 10
81 140 140
82 10 0
83 241 -10
84 107 0
85 20 98
86 324 47
87 67 157
88 48 136
89 616 10
90 250 124
91 10 0
92 299 -18
93 125 0
94 10 183
95 494 52
96 118 145
97 53 212
98 209 10
99 259 59
100 10 254
101 104 21
102 0 179
103 20 129
104 121 57
105 606 682
106 58 57
107 261 10
108 232 121
109 10 0
110 132 10
111 0 282
112 -10 371
113 0 62
114 159 166
115 63 143
116 82 10
117 248 41
118 10 0
119 263 30
120 0 262
121 20 87
122 104 67
123 110 147
124 68 259
125 310 10
126 38 139
127 10 134
128 41 -20
129 403 0
130 -10 140
131 0 72
132 206 256
133 73 102
134 869 10
135 43 286
136 10 0
137 160 20
138 0 42
139 13 98
140 444 77
141 185 251
142 78 88
143 684 10
144 122 127
145 10 0
146 63 10
147 0 43
148 -19 97
149 0 82
150 629 681
PICKUP_AND_DELIVERY_SECTION
1 0 0 0 0 0 0
2 0 0 0 0 1206 0
3 0 0 0 0 0 125
4 0 0 0 0 10 10
5 0 0 0 0 107 107
6 0 0 0 0 0 0
7 0 0 0 0 -30 -30
8 0 0 0 0 0 0
9 0 0 0 0 281 281
10 0 0 0 0 5 5
11 0 0 0 0 89 89
12 0 0 0 0 143 143
13 0 0 0 0 0 0
14 0 0 0 0 141 141
15 0 0 0 0 328 328
16 0 0 0 0 -16 -16
17 0 0 0 0 0 0
18 0 0 0 0 125 125
19 0 0 0 0 10 0
20 0 0 0 0 409 409
21 0 0 0 0 159 159
22 0 0 0 0 10 10
23 0 0 0 0 4 4
24 0 0 0 0 0 0
25 0 0 0 0 10 10
26 0 0 0 0 27 0
27 0 0 0 0 93 93
28 0 0 0 0 15 15
29 0 0 0 0 622 622
30 0 0 0 0 231 231
31 0 0 0 0 10 10
32 0 0 0 0 132 132
33 0 0 0 0 170 170
34 0 0 0 0 14 14
35 0 0 0 0 561 0
36 0 0 0 0 535 535
37 0 0 0 0 20 20
38 0 0 0 0 564 564
39 0 0 0 0 110 110
40 0 0 0 0 10 10
41 0 0 0 0 74 74
42 0 0 0 0 0 0
43 0 0 0 0 19 19
44 0 0 0 0 401 0
45 0 0 0 0 118 118
46 0 0 0 0 25 25
47 0 0 0 0 276 276
48 0 0 0 0 134 134
49 0 0 0 0 10 10
50 0 0 0 0 59 59
51 0 0 0 0 13 13
52 0 0 0 0 -30 -30
53 0 0 0 0 0 0
54 0 0 0 0 302 302
55 0 0 0 0 30 30
56 0 0 0 0 280 280
57 0 0 0 0 234 234
58 0 0 0 0 10 10
59 0 0 0 0 208 208
60 0 0 0 0 165 165
61 0 0 0 0 10 10
62 0 0 0 0 580 0
63 0 0 0 0 751 751
64 0 0 0 0 35 0
65 0 0 0 0 895 895
66 0 0 0 0 105 105
67 0 0 0 0 10 10
68 0 0 0 0 183 183
69 0 0 0 0 0 0
70 0 0 0 0 15 15
71 0 0 0 0 145 0
72 0 0 0 0 163 163
73 0 0 0 0 40 40
74 0 0 0 0 493 493
75 0 0 0 0 212 212
76 0 0 0 0 10 10
77 0 0 0 0 149 149
78 0 0 0 0 75 75
79 0 0 0 0 -10 -10
80 0 0 0 0 0 0
81 0 0 0 0 18 18
82 0 0 0 0 45 45
83 0 0 0 0 725 725
84 0 0 0 0 222 222
85 0 0 0 0 10 10
86 0 0 0 0 124 124
87 0 0 0 0 0 0
88 0 0 0 0 19 19
89 0 0 0 0 549 0
90 0 0 0 0 103 103
91 0 0 0 0 50 50
92 0 0 0 0 406 406
93 0 0 0 0 258 258
94 0 0 0 0 10 10
95 0 0 0 0 47 47
96 0 0 0 0 0 0
97 0 0 0 0 20 20
98 0 0 0 0 137 0
99 0 0 0 0 173 173
100 0 0 0 0 55 0
101 0 0 0 0 89 89
102 0 0 0 0 77 77
103 0 0 0 0 10 10
104 0 0 0 0 45 45
105 0 0 0 0 489 489
106 0 0 0 0 23 23
107 0 0 0 0 78 0
108 0 0 0 0 560 560
109 0 0 0 0 60 60
110 0 0 0 0 219 219
111 0 0 0 0 18 18
112 0 0 0 0 10 10
113 0 0 0 0 113 113
114 0 0 0 0 0 0
115 0 0 0 0 20 20
116 0 0 0 0 423 0
117 0 0 0 0 436 436
118 0 0 0 0 65 65
119 0 0 0 0 242 242
120 0 0 0 0 109 109
121 0 0 0 0 10 10
122 0 0 0 0 71 71
123 0 0 0 0 383 383
124 0 0 0 0 10 10
125 0 0 0 0 205 0
126 0 0 0 0 326 326
127 0 0 0 0 70 0
128 0 0 0 0 396 396
129 0 0 0 0 255 255
130 0 0 0 0 10 10
131 0 0 0 0 122 122
132 0 0 0 0 445 445
133 0 0 0 0 -20 -20
134 0 0 0 0 0 0
135 0 0 0 0 173 173
136 0 0 0 0 75 75
137 0 0 0 0 137 137
138 0 0 0 0 172 172
139 0 0 0 0 10 10
140 0 0 0 0 22 22
141 0 0 0 0 505 505
142 0 0 0 0 -23 -23
143 0 0 0 0 0 0
144 0 0 0 0 0 36
145 0 0 0 0 80 80
146 0 0 0 0 238 238
147 0 0 0 0 53 53
148 0 0 0 0 10 10
149 0 0 0 0 281 281
150 0 0 0 0 465 465
DEPOT_SECTION
1 
-1
EOF
